0 3740
4 3733
5 3730
6 3727
10 3686
11 3647
12 3641
18 3608
19 3580
20 3571
22 3551
33 3549
34 3543
44 3535
47 3528
56 3527
59 3518
69 3508
73 3498
86 3491
90 3476
92 3468
143 3451
153 3448
159 3445
175 3434
209 3413
212 3389
219 3386
234 3384
240 3383
243 3375
262 3349
273 3344
335 3340
353 3339
366 3338
397 3337
429 3333
541 3326
581 3318
608 3317
610 3305
615 3293
630 3280
685 3275
689 3271
693 3270
1216 3267
1224 3241
1704 3232
1800 3226
1813 3224
1888 3223
2096 3216
2292 3198
2549 3188
2575 3187
2872 3179
2892 3160
2905 3159
3116 3153
3463 3152
3564 3143
3637 3134
3859 3132
4861 3129
4954 3124
5952 3122
6999 3121
7268 3115
7688 3112
8529 3101
8733 3095
8805 3091
8930 3087
13962 3086
15054 3084
46905 3081
155096 3070
155104 3069
156412 3068
157761 3066
157797 3065
157954 3064
157972 3063
